NAME : X-n181-k23
COMMENT : "Generated by Uchoa, Pecin, Pessoa, Poggi, Subramanian, and Vidal (2013)"
TYPE : CVRP
DIMENSION : 181
EDGE_WEIGHT_TYPE : EUC_2D
CAPACITY : 8
NODE_COORD_SECTION
1 894 510
2 463 887
3 704 177
4 424 368
5 420 800
6 492 610
7 607 749
8 455 819
9 343 457
10 387 275
11 466 653
12 607 348
13 428 546
14 764 848
15 403 298
16 315 738
17 457 902
18 597 584
19 219 552
20 526 359
21 414 340
22 398 401
23 579 780
24 518 563
25 531 597
26 501 827
27 687 200
28 670 234
29 488 981
30 673 222
31 359 256
32 537 675
33 788 95
34 433 820
35 397 770
36 444 799
37 367 288
38 253 774
39 570 853
40 379 843
41 388 736
42 565 785
43 608 193
44 430 657
45 775 142
46 721 600
47 434 876
48 683 311
49 592 740
50 500 315
51 428 915
52 710 258
53 709 272
54 426 803
55 409 639
56 535 572
57 502 916
58 528 728
59 351 371
60 657 782
61 493 265
62 751 112
63 469 594
64 720 165
65 463 624
66 751 96
67 496 833
68 565 459
69 471 361
70 448 969
71 361 559
72 529 582
73 515 809
74 497 434
75 429 879
76 483 715
77 264 574
78 793 916
79 448 386
80 325 199
81 327 370
82 484 861
83 432 873
84 412 853
85 641 155
86 712 163
87 456 612
88 301 921
89 480 400
90 700 165
91 690 213
92 478 811
93 665 56
94 430 368
95 414 943
96 709 235
97 296 297
98 380 773
99 459 423
100 498 910
101 464 939
102 677 704
103 420 381
104 398 872
105 554 512
106 486 614
107 584 809
108 429 336
109 461 529
110 470 360
111 494 769
112 407 661
113 687 711
114 454 745
115 593 471
116 537 648
117 666 111
118 452 797
119 430 742
120 481 958
121 636 741
122 405 576
123 666 234
124 603 683
125 473 466
126 378 867
127 611 739
128 342 688
129 446 280
130 585 888
131 496 418
132 711 27
133 791 198
134 660 828
135 414 839
136 504 592
137 665 921
138 448 320
139 550 637
140 637 758
141 743 166
142 504 869
143 708 432
144 664 343
145 499 493
146 878 706
147 396 920
148 275 924
149 727 669
150 728 203
151 367 739
152 444 808
153 755 303
154 445 864
155 561 848
156 597 660
157 386 700
158 652 240
159 344 301
160 209 369
161 571 812
162 454 353
163 497 781
164 697 220
165 296 787
166 517 506
167 409 893
168 339 886
169 518 788
170 719 99
171 607 654
172 218 312
173 533 847
174 523 938
175 598 705
176 481 772
177 461 431
178 375 722
179 460 681
180 524 610
181 771 752
PICKUP_AND_DELIVERY_SECTION
1 0 0 1000000000 0 0 0
2 0 0 1000000000 0 0.478 0.522
3 0 0 1000000000 0 0.7486 0.2514
4 0 0 1000000000 0 0.1321 0.8679
5 0 0 1000000000 0 0.475 0.525
6 0 0 1000000000 0 0.1934 0.8066
7 0 0 1000000000 0 0.1896 0.8104
8 0 0 1000000000 0 0.4444 0.5556
9 0 0 1000000000 0 0.2495 0.7505
10 0 0 1000000000 0 0.2894 0.7106
11 0 0 1000000000 0 0.2864 0.7136
12 0 0 1000000000 0 0.4267 0.5733
13 0 0 1000000000 0 0.2161 0.7839
14 0 0 1000000000 0 0.09906 0.9009
15 0 0 1000000000 0 0.2605 0.7395
16 0 0 1000000000 0 0.5732 0.4268
17 0 0 1000000000 0 0.4933 0.5067
18 0 0 1000000000 0 0.02178 0.9782
19 0 0 1000000000 0 0.6033 0.3967
20 0 0 1000000000 0 0.3175 0.6825
21 0 0 1000000000 0 0.1787 0.8213
22 0 0 1000000000 0 0.00748 0.9925
23 0 0 1000000000 0 0.2577 0.7423
24 0 0 1000000000 0 0.07993 0.9201
25 0 0 1000000000 0 0.1106 0.8894
26 0 0 1000000000 0 0.3942 0.6058
27 0 0 1000000000 0 0.7089 0.2911
28 0 0 1000000000 0 0.6507 0.3493
29 0 0 1000000000 0 0.5025 0.4975
30 0 0 1000000000 0 0.6701 0.3299
31 0 0 1000000000 0 0.2869 0.7131
32 0 0 1000000000 0 0.2044 0.7956
33 0 0 1000000000 0 0.8794 0.1206
34 0 0 1000000000 0 0.472 0.528
35 0 0 1000000000 0 0.4844 0.5156
36 0 0 1000000000 0 0.4443 0.5557
37 0 0 1000000000 0 0.2153 0.7847
38 0 0 1000000000 0 0.6731 0.3269
39 0 0 1000000000 0 0.3318 0.6682
40 0 0 1000000000 0 0.5504 0.4496
41 0 0 1000000000 0 0.4728 0.5272
42 0 0 1000000000 0 0.2803 0.7197
43 0 0 1000000000 0 0.6826 0.3174
44 0 0 1000000000 0 0.3455 0.6545
45 0 0 1000000000 0 0.8168 0.1832
46 0 0 1000000000 0 0.1678 0.8322
47 0 0 1000000000 0 0.5046 0.4954
48 0 0 1000000000 0 0.5447 0.4553
49 0 0 1000000000 0 0.2 0.8
50 0 0 1000000000 0 0.37 0.63
51 0 0 1000000000 0 0.5322 0.4678
52 0 0 1000000000 0 0.6366 0.3634
53 0 0 1000000000 0 0.6164 0.3836
54 0 0 1000000000 0 0.4695 0.5305
55 0 0 1000000000 0 0.3599 0.6401
56 0 0 1000000000 0 0.06469 0.9353
57 0 0 1000000000 0 0.452 0.548
58 0 0 1000000000 0 0.2747 0.7253
59 0 0 1000000000 0 0.05391 0.9461
60 0 0 1000000000 0 0.1598 0.8402
61 0 0 1000000000 0 0.4625 0.5375
62 0 0 1000000000 0 0.8509 0.1491
63 0 0 1000000000 0 0.2104 0.7896
64 0 0 1000000000 0 0.7708 0.2292
65 0 0 1000000000 0 0.258 0.742
66 0 0 1000000000 0 0.8722 0.1278
67 0 0 1000000000 0 0.4046 0.5954
68 0 0 1000000000 0 0.1876 0.8124
69 0 0 1000000000 0 0.2335 0.7665
70 0 0 1000000000 0 0.5377 0.4623
71 0 0 1000000000 0 0.3542 0.6458
72 0 0 1000000000 0 0.09107 0.9089
73 0 0 1000000000 0 0.3634 0.6366
74 0 0 1000000000 0 0.1268 0.8732
75 0 0 1000000000 0 0.5119 0.4881
76 0 0 1000000000 0 0.3245 0.6755
77 0 0 1000000000 0 0.5401 0.4599
78 0 0 1000000000 0 0.1343 0.8657
79 0 0 1000000000 0 0.1384 0.8616
80 0 0 1000000000 0 0.3877 0.6123
81 0 0 1000000000 0 0.1162 0.8838
82 0 0 1000000000 0 0.4379 0.5621
83 0 0 1000000000 0 0.5052 0.4948
84 0 0 1000000000 0 0.517 0.483
85 0 0 1000000000 0 0.7582 0.2418
86 0 0 1000000000 0 0.7711 0.2289
87 0 0 1000000000 0 0.2549 0.7451
88 0 0 1000000000 0 0.6732 0.3268
89 0 0 1000000000 0 0.1667 0.8333
90 0 0 1000000000 0 0.7643 0.2357
91 0 0 1000000000 0 0.6913 0.3087
92 0 0 1000000000 0 0.4106 0.5894
93 0 0 1000000000 0 0.9158 0.08421
94 0 0 1000000000 0 0.1442 0.8558
95 0 0 1000000000 0 0.561 0.439
96 0 0 1000000000 0 0.6685 0.3315
97 0 0 1000000000 0 0.00337 0.9966
98 0 0 1000000000 0 0.5084 0.4916
99 0 0 1000000000 0 0.07843 0.9216
100 0 0 1000000000 0 0.4527 0.5473
101 0 0 1000000000 0 0.5059 0.4941
102 0 0 1000000000 0 0.03835 0.9616
103 0 0 1000000000 0 0.09286 0.9071
104 0 0 1000000000 0 0.5436 0.4564
105 0 0 1000000000 0 0.07581 0.9242
106 0 0 1000000000 0 0.2085 0.7915
107 0 0 1000000000 0 0.2781 0.7219
108 0 0 1000000000 0 0.2168 0.7832
109 0 0 1000000000 0 0.1285 0.8715
110 0 0 1000000000 0 0.234 0.766
111 0 0 1000000000 0 0.3576 0.6424
112 0 0 1000000000 0 0.3843 0.6157
113 0 0 1000000000 0 0.03376 0.9662
114 0 0 1000000000 0 0.3906 0.6094
115 0 0 1000000000 0 0.2057 0.7943
116 0 0 1000000000 0 0.1713 0.8287
117 0 0 1000000000 0 0.8333 0.1667
118 0 0 1000000000 0 0.4329 0.5671
119 0 0 1000000000 0 0.4205 0.5795
120 0 0 1000000000 0 0.4979 0.5021
121 0 0 1000000000 0 0.1417 0.8583
122 0 0 1000000000 0 0.2969 0.7031
123 0 0 1000000000 0 0.6486 0.3514
124 0 0 1000000000 0 0.1171 0.8829
125 0 0 1000000000 0 0.0148 0.9852
126 0 0 1000000000 0 0.564 0.436
127 0 0 1000000000 0 0.1732 0.8268
128 0 0 1000000000 0 0.5029 0.4971
129 0 0 1000000000 0 0.3722 0.6278
130 0 0 1000000000 0 0.3412 0.6588
131 0 0 1000000000 0 0.1573 0.8427
132 0 0 1000000000 0 0.962 0.03797
133 0 0 1000000000 0 0.7497 0.2503
134 0 0 1000000000 0 0.2029 0.7971
135 0 0 1000000000 0 0.5066 0.4934
136 0 0 1000000000 0 0.1486 0.8514
137 0 0 1000000000 0 0.278 0.722
138 0 0 1000000000 0 0.2857 0.7143
139 0 0 1000000000 0 0.1366 0.8634
140 0 0 1000000000 0 0.1596 0.8404
141 0 0 1000000000 0 0.7766 0.2234
142 0 0 1000000000 0 0.42 0.58
143 0 0 1000000000 0 0.3898 0.6102
144 0 0 1000000000 0 0.4834 0.5166
145 0 0 1000000000 0 0.01202 0.988
146 0 0 1000000000 0 0.1959 0.8041
147 0 0 1000000000 0 0.5696 0.4304
148 0 0 1000000000 0 0.7024 0.2976
149 0 0 1000000000 0 0.07978 0.9202
150 0 0 1000000000 0 0.7212 0.2788
151 0 0 1000000000 0 0.5034 0.4966
152 0 0 1000000000 0 0.4505 0.5495
153 0 0 1000000000 0 0.5987 0.4013
154 0 0 1000000000 0 0.485 0.515
155 0 0 1000000000 0 0.3384 0.6616
156 0 0 1000000000 0 0.09545 0.9045
157 0 0 1000000000 0 0.4486 0.5514
158 0 0 1000000000 0 0.6319 0.3681
159 0 0 1000000000 0 0.125 0.875
160 0 0 1000000000 0 0.4336 0.5664
161 0 0 1000000000 0 0.2968 0.7032
162 0 0 1000000000 0 0.2225 0.7775
163 0 0 1000000000 0 0.3636 0.6364
164 0 0 1000000000 0 0.6844 0.3156
165 0 0 1000000000 0 0.6239 0.3761
166 0 0 1000000000 0 0.02128 0.9787
167 0 0 1000000000 0 0.542 0.458
168 0 0 1000000000 0 0.6174 0.3826
169 0 0 1000000000 0 0.3426 0.6574
170 0 0 1000000000 0 0.8623 0.1377
171 0 0 1000000000 0 0.07187 0.9281
172 0 0 1000000000 0 0.3013 0.6987
173 0 0 1000000000 0 0.3707 0.6293
174 0 0 1000000000 0 0.4424 0.5576
175 0 0 1000000000 0 0.1518 0.8482
176 0 0 1000000000 0 0.3769 0.6231
177 0 0 1000000000 0 0.06508 0.9349
178 0 0 1000000000 0 0.4806 0.5194
179 0 0 1000000000 0 0.3245 0.6755
180 0 0 1000000000 0 0.141 0.859
181 0 0 1000000000 0 0.02464 0.9754
